SAT
-86 97 -87 -35 100 21 -19 27 -12 34 25 -54 59 36 8 -91 48 68 -77 -76 -3 72 -46 -53 -84 -29 -45 -47 5 -50 -4 66 -43 -2 -31 -1 -98 -16 85 63 -73 78 -80 92 38 18 70 -79 -52 39 -26 65 28 -49 96 -41 44 62 6 83 -57 -95 22 -24 23 88 -20 -56 -93 -33 -74 64 58 -69 -55 -37 -60 -11 13 51 -61 17 -32 -9 -90 14 -89 -99 -82 -81 15 -7 -42 71 -94 -40 10 67 75 -30 0
